(declare-fun b68 () (_ FloatingPoint 8 24))
(declare-fun b10 () (_ FloatingPoint 8 24))
(declare-fun b59 () (_ FloatingPoint 8 24))
(declare-fun b62 () (_ FloatingPoint 8 24))
(declare-fun b23 () (_ FloatingPoint 8 24))
(declare-fun b11 () (_ FloatingPoint 8 24))
(declare-fun b14 () (_ FloatingPoint 8 24))
(declare-fun b120 () (_ FloatingPoint 8 24))
(declare-fun b26 () (_ FloatingPoint 8 24))
(declare-fun b32 () (_ FloatingPoint 8 24))
(declare-fun b53 () (_ FloatingPoint 8 24))
(declare-fun b50 () (_ FloatingPoint 8 24))
(declare-fun b47 () (_ FloatingPoint 8 24))
(declare-fun b29 () (_ FloatingPoint 8 24))
(declare-fun b20 () (_ FloatingPoint 8 24))
(declare-fun b56 () (_ FloatingPoint 8 24))
(declare-fun b35 () (_ FloatingPoint 8 24))
(declare-fun b41 () (_ FloatingPoint 8 24))
(declare-fun b38 () (_ FloatingPoint 8 24))
(declare-fun b71 () (_ FloatingPoint 8 24))
(declare-fun b17 () (_ FloatingPoint 8 24))
(declare-fun b65 () (_ FloatingPoint 8 24))
(declare-fun b44 () (_ FloatingPoint 8 24))
(assert (let ((.def_131 (fp.lt b120 b68)))
(let ((.def_129 (fp.lt b68 b71)))
(let ((.def_127 (fp.lt b120 b65)))
(let ((.def_125 (fp.lt b65 b71)))
(let ((.def_123 (fp.lt b120 b62)))
(let ((.def_121 (fp.lt b62 b71)))
(let ((.def_119 (fp.lt b120 b59)))
(let ((.def_117 (fp.lt b59 b71)))
(let ((.def_115 (fp.lt b120 b56)))
(let ((.def_113 (fp.lt b56 b71)))
(let ((.def_111 (fp.lt b120 b53)))
(let ((.def_109 (fp.lt b53 b71)))
(let ((.def_107 (fp.lt b120 b50)))
(let ((.def_105 (fp.lt b50 b71)))
(let ((.def_103 (fp.lt b120 b47)))
(let ((.def_101 (fp.lt b47 b71)))
(let ((.def_99 (fp.lt b120 b44)))
(let ((.def_97 (fp.lt b44 b71)))
(let ((.def_95 (fp.lt b120 b41)))
(let ((.def_93 (fp.lt b41 b71)))
(let ((.def_91 (fp.lt b120 b38)))
(let ((.def_89 (fp.lt b38 b71)))
(let ((.def_87 (fp.lt b120 b35)))
(let ((.def_85 (fp.lt b35 b71)))
(let ((.def_83 (fp.lt b120 b32)))
(let ((.def_81 (fp.lt b32 b71)))
(let ((.def_79 (fp.lt b120 b29)))
(let ((.def_77 (fp.lt b29 b71)))
(let ((.def_75 (fp.lt b120 b26)))
(let ((.def_73 (fp.lt b26 b71)))
(let ((.def_71 (fp.lt b120 b23)))
(let ((.def_69 (fp.lt b23 b71)))
(let ((.def_67 (fp.lt b120 b20)))
(let ((.def_65 (fp.lt b20 b71)))
(let ((.def_63 (fp.lt b120 b17)))
(let ((.def_61 (fp.lt b17 b71)))
(let ((.def_59 (fp.lt b120 b14)))
(let ((.def_57 (fp.lt b14 b71)))
(let ((.def_55 (fp.lt b120 b11)))
(let ((.def_13 (fp.div RNE b10 b11)))
(let ((.def_15 (fp.div RNE .def_13 b14)))
(let ((.def_17 (fp.div RNE .def_15 b17)))
(let ((.def_19 (fp.div RNE .def_17 b20)))
(let ((.def_21 (fp.div RNE .def_19 b23)))
(let ((.def_23 (fp.div RNE .def_21 b26)))
(let ((.def_25 (fp.div RNE .def_23 b29)))
(let ((.def_27 (fp.div RNE .def_25 b32)))
(let ((.def_29 (fp.div RNE .def_27 b35)))
(let ((.def_31 (fp.div RNE .def_29 b38)))
(let ((.def_33 (fp.div RNE .def_31 b41)))
(let ((.def_35 (fp.div RNE .def_33 b44)))
(let ((.def_37 (fp.div RNE .def_35 b47)))
(let ((.def_39 (fp.div RNE .def_37 b50)))
(let ((.def_41 (fp.div RNE .def_39 b53)))
(let ((.def_43 (fp.div RNE .def_41 b56)))
(let ((.def_45 (fp.div RNE .def_43 b59)))
(let ((.def_47 (fp.div RNE .def_45 b62)))
(let ((.def_49 (fp.div RNE .def_47 b65)))
(let ((.def_51 (fp.div RNE .def_49 b68)))
(let ((.def_52 (fp.lt .def_51 b71)))
(let ((.def_11 (fp.lt b11 b71)))
(let ((.def_53 (and .def_11 .def_52)))
(let ((.def_56 (and .def_53 .def_55)))
(let ((.def_58 (and .def_56 .def_57)))
(let ((.def_60 (and .def_58 .def_59)))
(let ((.def_62 (and .def_60 .def_61)))
(let ((.def_64 (and .def_62 .def_63)))
(let ((.def_66 (and .def_64 .def_65)))
(let ((.def_68 (and .def_66 .def_67)))
(let ((.def_70 (and .def_68 .def_69)))
(let ((.def_72 (and .def_70 .def_71)))
(let ((.def_74 (and .def_72 .def_73)))
(let ((.def_76 (and .def_74 .def_75)))
(let ((.def_78 (and .def_76 .def_77)))
(let ((.def_80 (and .def_78 .def_79)))
(let ((.def_82 (and .def_80 .def_81)))
(let ((.def_84 (and .def_82 .def_83)))
(let ((.def_86 (and .def_84 .def_85)))
(let ((.def_88 (and .def_86 .def_87)))
(let ((.def_90 (and .def_88 .def_89)))
(let ((.def_92 (and .def_90 .def_91)))
(let ((.def_94 (and .def_92 .def_93)))
(let ((.def_96 (and .def_94 .def_95)))
(let ((.def_98 (and .def_96 .def_97)))
(let ((.def_100 (and .def_98 .def_99)))
(let ((.def_102 (and .def_100 .def_101)))
(let ((.def_104 (and .def_102 .def_103)))
(let ((.def_106 (and .def_104 .def_105)))
(let ((.def_108 (and .def_106 .def_107)))
(let ((.def_110 (and .def_108 .def_109)))
(let ((.def_112 (and .def_110 .def_111)))
(let ((.def_114 (and .def_112 .def_113)))
(let ((.def_116 (and .def_114 .def_115)))
(let ((.def_118 (and .def_116 .def_117)))
(let ((.def_120 (and .def_118 .def_119)))
(let ((.def_122 (and .def_120 .def_121)))
(let ((.def_124 (and .def_122 .def_123)))
(let ((.def_126 (and .def_124 .def_125)))
(let ((.def_128 (and .def_126 .def_127)))
(let ((.def_130 (and .def_128 .def_129)))
(let ((.def_132 (and .def_130 .def_131)))
.def_132))))))))))))))))))))))))))))))))))))))))))))))))))))))))))))))))))))))))))))))))))))))))))))))))))))))
(check-sat)
